a
-2.0
-2.0
-2.0
-2.0
-2.0
-2.0
-2.0
-2.0
-2.0
-2.0
-2.0
-2.0
0.0
-2.0
-2.0
-2.0
c
-2.0
6.0
-2.0
-2.0
-2.0
-2.0
18.0
-2.0
-2.0
10.0
-2.0
-2.0
-2.0
-2.0
-2.0
-2.0
b
0.0
0.0
-2.0
-2.0
-2.0
-2.0
6.0
-2.0
-2.0
-2.0
-2.0
-2.0
2.0
-2.0
-2.0
2.0
e
0.0
2.0
-2.0
-2.0
-2.0
-2.0
18.0
-2.0
-2.0
0.0
-2.0
-2.0
2.0
-2.0
-2.0
6.0
d
-2.0
-2.0
-2.0
-2.0
-2.0
-2.0
-2.0
-2.0
-2.0
-2.0
-2.0
-2.0
0.0
-2.0
-2.0
-2.0
f
-2.0
-2.0
0.0
-2.0
-2.0
-2.0
0.0
-2.0
-2.0
-2.0
-2.0
-2.0
2.0
-2.0
-2.0
-2.0
i
-2.0
4.0
-2.0
-2.0
-2.0
-2.0
6.0
-2.0
-2.0
4.0
-2.0
-2.0
-2.0
-2.0
-2.0
-2.0
h
-2.0
-2.0
-2.0
-2.0
-2.0
-2.0
-2.0
-2.0
-2.0
-2.0
-2.0
-2.0
-2.0
-2.0
-2.0
0.0
k
-2.0
-2.0
0.0
-2.0
-2.0
-2.0
0.0
-2.0
-2.0
-2.0
-2.0
-2.0
2.0
-2.0
-2.0
-2.0
j
-2.0
-2.0
-2.0
-2.0
-2.0
-2.0
-2.0
-2.0
-2.0
-2.0
-2.0
-2.0
0.0
-2.0
-2.0
-2.0
